Name: EasyAcademy16
Courses: 56
Rooms: 12
Days: 5
Periods_per_day: 9
Curricula: 18
Min_Max_Daily_Lectures: 3 7
UnavailabilityConstraints: 0
RoomConstraints: 0

COURSES:
c28955 t4738 4 2 0 1
c28959 t4796 4 2 0 1
c28963 t3643 7 3 0 1
c28977 no_teacher1 2 1 0 1
c28978 t4732 6 3 0 1
c28979 t3648 6 3 0 1
c28980 t9157 6 3 0 1
c28981 t3649 2 1 0 1
c28982 t3646 6 2 0 1
c28983 t4740 4 2 0 1
c28984 t3628 4 2 0 1
c28985 t4773 4 2 0 1
c28986 t8942 4 2 0 1
c28987 t3626 3 1 0 1
c28988 t15641 4 2 0 1
c28989 t3627 6 3 40 1
c28991 t3648 4 2 0 1
c28992 t4810 5 2 0 1
c28994 t3636 6 2 0 1
c28995 t3643 2 1 0 1
c28997 t3651 4 2 0 1
c28998 t3612 6 2 0 1
c28999 t3649 6 3 0 1
c29000 t4738 6 2 0 1
c29001 t3615 4 2 0 1
c29002 t9155 4 2 0 1
c29003 t3640 4 2 0 1
c29005 t3629 4 2 0 1
c29006 t15637 6 2 0 1
c29007 t3647 6 3 0 1
c29008 t3614 6 3 0 1
c29009 t3637 6 3 0 1
c29010 t3624 8 3 0 1
c29011 t3645 8 3 0 1
c29012 t3616 8 3 0 1
c29013 t3643 6 3 0 1
c29014 t3632 4 2 0 1
c29015 t3631 4 2 0 1
c29016 t15639 4 2 0 1
c29017 t15639 4 2 0 1
c29018 t3627 4 2 0 1
c29019 t4796 4 2 0 1
c29020 t3622 4 2 0 1
c29021 t3633 4 2 0 1
c29023 t3613 6 3 0 1
c29025 t3641 7 3 0 1
c29026 t3625 7 3 0 1
c29027 t3612 7 3 0 1
c29028 t3642 4 2 0 1
c30014 t3639 6 3 0 1
c30016 t3639 4 2 0 1
c30019 t4738 13 4 0 1
c30020 t3634 6 3 0 1
c30025 t8979 4 2 0 1
c36141 t15402 4 2 0 1
c36205 t3614 4 2 0 1

ROOMS:
r1453 42 2
r1454 116 0
r1455 109 0
r1456 98 0
r1457 177 0
r1458 21 0
r1459 47 0
r1460 52 0
r1461 48 1
r1462 206 1
r1463 191 1
r1464 99 1

CURRICULA:
cu3877 2 c30016 c30019
cu3878 3 c28978 c29001 c29010
cu3879 4 c28955 c28979 c29002 c29011
cu3880 4 c28955 c28980 c29003 c29012
cu3881 4 c28983 c29007 c29015 c29025
cu3885 7 c28982 c28994 c28998 c29000 c29023 c30014 c30016
cu3886 7 c28982 c28994 c29000 c29006 c29013 c29023 c30014
cu3887a 6 c28982 c28999 c29000 c29006 c29013 c30014
cu3887b 6 c28982 c28999 c29000 c29006 c29013 c30019
cu3900 4 c28984 c29008 c29016 c29026
cu3901 4 c28985 c29009 c29017 c29027
cu4012 9 c28977 c28986 c28989 c28992 c28997 c29020 c29021 c30025 c36205
cu4013 9 c28963 c28977 c28986 c28992 c28997 c29019 c29020 c29021 c36205
cu4016 5 c28998 c29000 c29013 c29023 c30014
cu4017 7 c28977 c28987 c28995 c29005 c29018 c30020 c36141
cu4018 7 c28959 c28977 c28987 c29018 c29028 c30014 c36141
cu4019 7 c28977 c28987 c28988 c29014 c29018 c30014 c36141
cu4020 9 c28977 c28981 c28987 c28991 c29005 c29014 c29018 c30014 c36141

UNAVAILABILITY_CONSTRAINTS:

ROOM_CONSTRAINTS:

END.
